n_res = 4;
rcap = [7, 12, 89, 91];
rtype = [1, 1, 2, 2];
n_tasks = 16;
modes = [ {1}, {2}, {3}, {4}, {5}, {6}, {7}, {8}, {9}, {10}, {11}, {12}, {13}, {14}, {15}, {16} ];
succ = [ {4, 5}, {12, 15}, {4, 5}, {6, 7, 8}, {6, 7, 8}, {14, 16}, {9, 10, 14}, {9, 11, 14}, {13, 15}, {11, 15}, {12}, {13}, {16}, {}, {}, {} ];
n_opt = 16;
dur = [8, 4, 6, 3, 5, 7, 3, 3, 6, 9, 2, 4, 2, 6, 4, 1];
rreq = [|  0,  6,  1,  7,  0,  1,  0,  0,  0,  0,  1,  0,  0,  6,  0,  0
        |  4,  0,  0,  0,  7,  0,  6,  3,  5,  8,  0,  3, 10,  0,  4,  8
        |  4,  3,  7,  6,  6,  7,  2,  5,  9,  6,  9,  3,  6,  7,  4,  5
        |  9,  9,  6,  5,  5,  5,  2,  5,  6, 10,  2,  2,  5,  5,  7,  8 |];
